(set-logic HORN)
(declare-fun |inv| (Int Int Int Int) Bool)
(assert (forall ((a Int) (b Int) (res Int) (cnt Int) (ap Int) (bp Int) (resp Int) (cntp Int)) (=> (and (= (+ (* -1 a) res) 0) (= (+ (* -1 b) cnt) 0) (<= a 1000000) (>= b 0) (<= b 1000000)) (inv a b res cnt))))
(assert (forall ((a Int) (b Int) (res Int) (cnt Int) (ap Int) (bp Int) (resp Int) (cntp Int)) (=> (and (inv a b res cnt) (> cnt 0)   (and (= ap a) (= bp b) (= resp (+ res 1)) (= cntp (+ cnt -1)))) (inv ap bp resp cntp))))
(assert (forall ((a Int) (b Int) (res Int) (cnt Int) (ap Int) (bp Int) (resp Int) (cntp Int)) (=> (and (not (> cnt 0)) (inv a b res cnt)) (= (+ (* -1 a) (+ (* -1 b) res)) 0))))
(check-sat)
(get-model)